SCIP version 9.2.1 [precision: 8 byte] [memory: block] [mode: optimized] [LP solver: Soplex 7.1.3] [GitHash: 0d2d3c7c2d]
Copyright (c) 2002-2025 Zuse Institute Berlin (ZIB)

External libraries: 
  Soplex 7.1.3         Linear Programming Solver developed at Zuse Institute Berlin (soplex.zib.de) [GitHash: 60fd96f2]
  CppAD 20180000.0     Algorithmic Differentiation of C++ algorithms developed by B. Bell (github.com/coin-or/CppAD)
  ZLIB 1.2.11          General purpose compression library by J. Gailly and M. Adler (zlib.net)
  TinyCThread 1.2      small portable implementation of the C11 threads API (tinycthread.github.io)
  GMP 6.2.1            GNU Multiple Precision Arithmetic Library developed by T. Granlund (gmplib.org)
  ZIMPL 3.6.2          Zuse Institute Mathematical Programming Language developed by T. Koch (zimpl.zib.de)
  AMPL/MP 690e9e7      AMPL .nl file reader library (github.com/ampl/mp)
  PaPILO 2.4.1         parallel presolve for integer and linear optimization (github.com/scipopt/papilo) (built with TBB) [GitHash: 11974394]
  Nauty 2.8.8          Computing Graph Automorphism Groups by Brendan D. McKay (users.cecs.anu.edu.au/~bdm/nauty)
  sassy 1.1            Symmetry preprocessor by Markus Anders (github.com/markusa4/sassy)
  Ipopt 3.14.17        Interior Point Optimizer developed by A. Waechter et.al. (github.com/coin-or/Ipopt)

reading user parameter file </home/admsys/SCIP/SCIPOptSuite-9.2.1-Linux/only_time.set>

read problem </home/admsys/SCIP/SCIPOptSuite-9.2.1-Linux/inputs/new_tr/order_dag/dag318_down_left_input.lp>
============

original problem has 5672 variables (5618 bin, 54 int, 0 impl, 0 cont) and 14840 constraints

solve problem
=============

presolving:
(round 1, fast)       3805 del vars, 9050 del conss, 0 add conss, 2046 chg bounds, 597 chg sides, 1194 chg coeffs, 0 upgd conss, 0 impls, 2128 clqs
(round 2, fast)       3805 del vars, 9286 del conss, 0 add conss, 2046 chg bounds, 597 chg sides, 1194 chg coeffs, 0 upgd conss, 0 impls, 2128 clqs
   (0.1s) running MILP presolver
   (0.1s) MILP presolver (3 rounds): 394 aggregations, 0 fixings, 1 bound changes
(round 3, medium)     4199 del vars, 14840 del conss, 4556 add conss, 2048 chg bounds, 597 chg sides, 1194 chg coeffs, 0 upgd conss, 0 impls, 1340 clqs
(round 4, exhaustive) 4199 del vars, 14840 del conss, 4556 add conss, 2048 chg bounds, 597 chg sides, 1194 chg coeffs, 3272 upgd conss, 0 impls, 1340 clqs
(round 5, exhaustive) 4199 del vars, 16391 del conss, 5073 add conss, 2048 chg bounds, 597 chg sides, 1194 chg coeffs, 3272 upgd conss, 0 impls, 1340 clqs
   (0.8s) probing: 1000/1420 (70.4%) - 0 fixings, 0 aggregations, 24582 implications, 0 bound changes
   (0.8s) probing: 1001/1420 (70.5%) - 0 fixings, 0 aggregations, 24587 implications, 0 bound changes
   (0.8s) probing aborted: 1000/1000 successive useless probings
   (0.8s) symmetry computation started: requiring (bin +, int +, cont +), (fixed: bin -, int -, cont -)
   (0.8s) no symmetry present (symcode time: 0.00)
presolving (6 rounds: 6 fast, 4 medium, 3 exhaustive):
 4199 deleted vars, 16391 deleted constraints, 5073 added constraints, 2048 tightened bounds, 0 added holes, 597 changed sides, 1194 changed coefficients
 10986 implications, 15395 cliques
presolved problem has 1473 variables (1420 bin, 53 int, 0 impl, 0 cont) and 3522 constraints
    441 constraints of type <varbound>
    306 constraints of type <setppc>
    517 constraints of type <and>
   1284 constraints of type <linear>
    974 constraints of type <logicor>
transformed objective value is always integral (scale: 1)
Presolving Time: 0.74

 time | node  | left  |LP iter|LP it/n|mem/heur|mdpt |vars |cons |rows |cuts |sepa|confs|strbr|  dualbound   | primalbound  |  gap   | compl. 
p 0.9s|     1 |     0 |     0 |     - |shiftand|   0 |1473 |3559 |4039 |   0 |  0 |  36 |   0 | 7.536640e+05 | 1.835008e+06 | 143.48%| unknown
  1.8s|     1 |     0 |  4119 |     - |    50M |   0 |1473 |3559 |4039 |   0 |  0 |  36 |   0 | 8.034420e+05 | 1.835008e+06 | 128.39%| unknown
  1.8s|     1 |     0 |  4120 |     - |    50M |   0 |1473 |3561 |4039 |   0 |  0 |  38 |   0 | 8.034420e+05 | 1.835008e+06 | 128.39%| unknown
* 3.6s|     1 |     0 |  4120 |     - |    LP  |   0 |1473 |3561 |4039 |   0 |  0 |  38 |   0 | 8.034420e+05 | 1.671168e+06 | 108.00%| unknown
  9.6s|     1 |     0 | 21080 |     - |    52M |   0 |1473 |3575 |4170 | 131 |  1 |  38 |   0 | 8.224021e+05 | 1.671168e+06 | 103.21%| unknown
  9.6s|     1 |     0 | 21081 |     - |    52M |   0 |1473 |3575 |4170 | 131 |  1 |  38 |   0 | 8.224030e+05 | 1.671168e+06 | 103.21%| unknown
  9.7s|     1 |     0 | 21081 |     - |    52M |   0 |1473 |3575 |4170 | 131 |  1 |  38 |   0 | 8.224030e+05 | 1.671168e+06 | 103.21%| unknown
 12.9s|     1 |     0 | 31065 |     - |    53M |   0 |1473 |3575 |4319 | 280 |  2 |  38 |   0 | 8.264966e+05 | 1.671168e+06 | 102.20%| unknown
 12.9s|     1 |     0 | 31069 |     - |    53M |   0 |1473 |3578 |4309 | 280 |  2 |  41 |   0 | 8.264970e+05 | 1.671168e+06 | 102.20%| unknown
 19.2s|     1 |     0 | 46132 |     - |    54M |   0 |1473 |3578 |4462 | 433 |  3 |  41 |   0 | 8.288481e+05 | 1.671168e+06 | 101.63%| unknown
 19.2s|     1 |     0 | 46133 |     - |    54M |   0 |1473 |3580 |4441 | 433 |  3 |  43 |   0 | 8.288490e+05 | 1.671168e+06 | 101.63%| unknown
 40.5s|     1 |     0 |100001 |     - |    55M |   0 |1473 |3580 |4576 | 568 |  4 |  43 |   0 | 8.331678e+05 | 1.671168e+06 | 100.58%| unknown
 40.5s|     1 |     0 |100002 |     - |    55M |   0 |1473 |3580 |4550 | 568 |  4 |  43 |   0 | 8.331680e+05 | 1.671168e+06 | 100.58%| unknown
 42.6s|     1 |     0 |103674 |     - |    57M |   0 |1473 |3580 |4640 | 658 |  5 |  43 |   0 | 8.355143e+05 | 1.671168e+06 | 100.02%| unknown
 42.7s|     1 |     0 |103675 |     - |    57M |   0 |1473 |3581 |4633 | 658 |  5 |  44 |   0 | 8.355150e+05 | 1.671168e+06 | 100.02%| unknown
 time | node  | left  |LP iter|LP it/n|mem/heur|mdpt |vars |cons |rows |cuts |sepa|confs|strbr|  dualbound   | primalbound  |  gap   | compl. 
 43.9s|     1 |     0 |105300 |     - |    58M |   0 |1473 |3581 |4720 | 745 |  6 |  44 |   0 | 8.355425e+05 | 1.671168e+06 | 100.01%| unknown
 43.9s|     1 |     0 |105304 |     - |    58M |   0 |1473 |3581 |4714 | 745 |  6 |  44 |   0 | 8.355430e+05 | 1.671168e+06 | 100.01%| unknown
 45.0s|     1 |     0 |106376 |     - |    58M |   0 |1473 |3581 |4783 | 814 |  7 |  44 |   0 | 8.365997e+05 | 1.671168e+06 |  99.76%| unknown
 45.0s|     1 |     0 |106377 |     - |    58M |   0 |1473 |3581 |4749 | 814 |  7 |  44 |   0 | 8.366000e+05 | 1.671168e+06 |  99.76%| unknown
 45.9s|     1 |     0 |107152 |     - |    59M |   0 |1473 |3581 |4593 | 870 |  8 |  44 |   0 | 8.368331e+05 | 1.671168e+06 |  99.70%| unknown
 46.0s|     1 |     0 |107153 |     - |    59M |   0 |1473 |3583 |4585 | 870 |  8 |  46 |   0 | 8.368340e+05 | 1.671168e+06 |  99.70%| unknown
 46.9s|     1 |     0 |108010 |     - |    60M |   0 |1473 |3583 |4626 | 911 |  9 |  46 |   0 | 8.373929e+05 | 1.671168e+06 |  99.57%| unknown
 46.9s|     1 |     0 |108011 |     - |    60M |   0 |1473 |3583 |4620 | 911 |  9 |  46 |   0 | 8.373930e+05 | 1.671168e+06 |  99.57%| unknown
 47.8s|     1 |     0 |108485 |     - |    60M |   0 |1473 |3583 |4672 | 963 | 10 |  46 |   0 | 8.404660e+05 | 1.671168e+06 |  98.84%| unknown
 47.8s|     1 |     0 |108486 |     - |    60M |   0 |1473 |3583 |4657 | 963 | 10 |  46 |   0 | 8.404670e+05 | 1.671168e+06 |  98.84%| unknown
 48.2s|     1 |     0 |109611 |     - |    61M |   0 |1473 |3583 |4531 |1005 | 11 |  46 |   0 | 8.503838e+05 | 1.671168e+06 |  96.52%| unknown
 48.2s|     1 |     0 |109612 |     - |    61M |   0 |1473 |3584 |4522 |1005 | 11 |  47 |   0 | 8.503840e+05 | 1.671168e+06 |  96.52%| unknown
 48.6s|     1 |     0 |110954 |     - |    61M |   0 |1473 |3584 |4587 |1070 | 12 |  47 |   0 | 8.565058e+05 | 1.671168e+06 |  95.11%| unknown
 48.6s|     1 |     0 |110955 |     - |    61M |   0 |1473 |3586 |4570 |1070 | 12 |  49 |   0 | 8.565060e+05 | 1.671168e+06 |  95.11%| unknown
 49.1s|     1 |     0 |112259 |     - |    62M |   0 |1473 |3586 |4624 |1124 | 13 |  49 |   0 | 8.638275e+05 | 1.671168e+06 |  93.46%| unknown
 time | node  | left  |LP iter|LP it/n|mem/heur|mdpt |vars |cons |rows |cuts |sepa|confs|strbr|  dualbound   | primalbound  |  gap   | compl. 
 49.1s|     1 |     0 |112260 |     - |    62M |   0 |1473 |3586 |4622 |1124 | 13 |  49 |   0 | 8.638280e+05 | 1.671168e+06 |  93.46%| unknown
 49.5s|     1 |     0 |113670 |     - |    62M |   0 |1473 |3586 |4459 |1179 | 14 |  49 |   0 | 8.698099e+05 | 1.671168e+06 |  92.13%| unknown
 49.5s|     1 |     0 |113671 |     - |    62M |   0 |1473 |3586 |4450 |1179 | 14 |  49 |   0 | 8.698100e+05 | 1.671168e+06 |  92.13%| unknown
 49.9s|     1 |     0 |115004 |     - |    63M |   0 |1473 |3586 |4514 |1243 | 15 |  49 |   0 | 8.747851e+05 | 1.671168e+06 |  91.04%| unknown
 49.9s|     1 |     0 |115005 |     - |    63M |   0 |1473 |3588 |4514 |1243 | 15 |  51 |   0 | 8.747860e+05 | 1.671168e+06 |  91.04%| unknown
 50.3s|     1 |     0 |116207 |     - |    63M |   0 |1473 |3588 |4573 |1302 | 16 |  51 |   0 | 8.789847e+05 | 1.671168e+06 |  90.12%| unknown
 50.3s|     1 |     0 |116208 |     - |    63M |   0 |1473 |3588 |4570 |1302 | 16 |  51 |   0 | 8.789850e+05 | 1.671168e+06 |  90.12%| unknown
 50.5s|     1 |     0 |116796 |     - |    64M |   0 |1473 |3588 |4471 |1359 | 17 |  51 |   0 | 8.825723e+05 | 1.671168e+06 |  89.35%| unknown
 50.5s|     1 |     0 |116797 |     - |    64M |   0 |1473 |3589 |4471 |1359 | 17 |  52 |   0 | 8.825730e+05 | 1.671168e+06 |  89.35%| unknown
 50.9s|     1 |     0 |118351 |     - |    64M |   0 |1473 |3589 |4523 |1411 | 18 |  52 |   0 | 8.856697e+05 | 1.671168e+06 |  88.69%| unknown
 51.0s|     1 |     0 |118352 |     - |    64M |   0 |1473 |3590 |4523 |1411 | 18 |  53 |   0 | 8.856700e+05 | 1.671168e+06 |  88.69%| unknown
 51.4s|     1 |     0 |119940 |     - |    64M |   0 |1473 |3590 |4596 |1484 | 19 |  53 |   0 | 8.883665e+05 | 1.671168e+06 |  88.12%| unknown
 51.5s|     1 |     0 |119941 |     - |    65M |   0 |1473 |3590 |4596 |1484 | 19 |  53 |   0 | 8.883670e+05 | 1.671168e+06 |  88.12%| unknown
 51.8s|     1 |     0 |121211 |     - |    65M |   0 |1473 |3590 |4501 |1550 | 20 |  53 |   0 | 8.907322e+05 | 1.671168e+06 |  87.62%| unknown
 51.9s|     1 |     0 |121212 |     - |    65M |   0 |1473 |3590 |4501 |1550 | 20 |  53 |   0 | 8.907330e+05 | 1.671168e+06 |  87.62%| unknown
 time | node  | left  |LP iter|LP it/n|mem/heur|mdpt |vars |cons |rows |cuts |sepa|confs|strbr|  dualbound   | primalbound  |  gap   | compl. 
 52.2s|     1 |     0 |122371 |     - |    65M |   0 |1473 |3590 |4568 |1617 | 21 |  53 |   0 | 8.928197e+05 | 1.671168e+06 |  87.18%| unknown
 52.2s|     1 |     0 |122372 |     - |    65M |   0 |1473 |3590 |4568 |1617 | 21 |  53 |   0 | 8.928200e+05 | 1.671168e+06 |  87.18%| unknown
 52.7s|     1 |     0 |123924 |     - |    65M |   0 |1473 |3590 |4626 |1675 | 22 |  53 |   0 | 8.946692e+05 | 1.671168e+06 |  86.79%| unknown
 52.7s|     1 |     0 |123925 |     - |    65M |   0 |1473 |3590 |4626 |1675 | 22 |  53 |   0 | 8.946700e+05 | 1.671168e+06 |  86.79%| unknown
 53.0s|     1 |     0 |124884 |     - |    65M |   0 |1473 |3590 |4550 |1735 | 23 |  53 |   0 | 8.963128e+05 | 1.671168e+06 |  86.45%| unknown
 53.0s|     1 |     0 |124885 |     - |    65M |   0 |1473 |3590 |4550 |1735 | 23 |  53 |   0 | 8.963130e+05 | 1.671168e+06 |  86.45%| unknown
 53.5s|     1 |     0 |126270 |     - |    65M |   0 |1473 |3590 |4609 |1794 | 24 |  53 |   0 | 8.977716e+05 | 1.671168e+06 |  86.15%| unknown
 53.5s|     1 |     0 |126271 |     - |    65M |   0 |1473 |3590 |4609 |1794 | 24 |  53 |   0 | 8.977720e+05 | 1.671168e+06 |  86.15%| unknown
 54.8s|     1 |     0 |131467 |     - |    65M |   0 |1473 |3590 |4680 |1865 | 25 |  53 |   0 | 8.990658e+05 | 1.671168e+06 |  85.88%| unknown
 54.8s|     1 |     0 |131468 |     - |    65M |   0 |1473 |3592 |4680 |1865 | 25 |  55 |   0 | 8.990660e+05 | 1.671168e+06 |  85.88%| unknown
 55.4s|     1 |     0 |133528 |     - |    65M |   0 |1473 |3592 |4613 |1989 | 26 |  55 |   0 | 9.002448e+05 | 1.671168e+06 |  85.63%| unknown
 55.4s|     1 |     0 |133529 |     - |    66M |   0 |1473 |3592 |4613 |1989 | 26 |  55 |   0 | 9.002450e+05 | 1.671168e+06 |  85.63%| unknown
 55.8s|     1 |     0 |134722 |     - |    66M |   0 |1473 |3592 |4702 |2078 | 27 |  55 |   0 | 9.013246e+05 | 1.671168e+06 |  85.41%| unknown
 55.8s|     1 |     0 |134723 |     - |    66M |   0 |1473 |3592 |4681 |2078 | 27 |  55 |   0 | 9.013250e+05 | 1.671168e+06 |  85.41%| unknown
 56.1s|     1 |     0 |135738 |     - |    66M |   0 |1473 |3592 |4760 |2157 | 28 |  55 |   0 | 9.023168e+05 | 1.671168e+06 |  85.21%| unknown
 time | node  | left  |LP iter|LP it/n|mem/heur|mdpt |vars |cons |rows |cuts |sepa|confs|strbr|  dualbound   | primalbound  |  gap   | compl. 
 56.2s|     1 |     0 |135739 |     - |    66M |   0 |1473 |3592 |4760 |2157 | 28 |  55 |   0 | 9.023170e+05 | 1.671168e+06 |  85.21%| unknown
 56.6s|     1 |     0 |137045 |     - |    66M |   0 |1473 |3592 |4714 |2224 | 29 |  55 |   0 | 9.032307e+05 | 1.671168e+06 |  85.02%| unknown
 56.6s|     1 |     0 |137046 |     - |    66M |   0 |1473 |3592 |4714 |2224 | 29 |  55 |   0 | 9.032310e+05 | 1.671168e+06 |  85.02%| unknown
 57.0s|     1 |     0 |138512 |     - |    66M |   0 |1473 |3592 |4765 |2275 | 30 |  55 |   0 | 9.040749e+05 | 1.671168e+06 |  84.85%| unknown
 57.1s|     1 |     0 |138513 |     - |    66M |   0 |1473 |3592 |4765 |2275 | 30 |  55 |   0 | 9.040750e+05 | 1.671168e+06 |  84.85%| unknown
 57.3s|     1 |     0 |139288 |     - |    66M |   0 |1473 |3592 |4831 |2341 | 31 |  55 |   0 | 9.048562e+05 | 1.671168e+06 |  84.69%| unknown
 57.3s|     1 |     0 |139291 |     - |    66M |   0 |1473 |3593 |4831 |2341 | 31 |  56 |   0 | 9.048570e+05 | 1.671168e+06 |  84.69%| unknown
 57.6s|     1 |     0 |140207 |     - |    66M |   0 |1473 |3593 |4762 |2387 | 32 |  56 |   0 | 9.055817e+05 | 1.671168e+06 |  84.54%| unknown
 57.6s|     1 |     0 |140208 |     - |    66M |   0 |1473 |3593 |4762 |2387 | 32 |  56 |   0 | 9.055820e+05 | 1.671168e+06 |  84.54%| unknown
 58.1s|     1 |     0 |141739 |     - |    66M |   0 |1473 |3593 |4825 |2450 | 33 |  56 |   0 | 9.062557e+05 | 1.671168e+06 |  84.40%| unknown
 58.1s|     1 |     0 |141740 |     - |    66M |   0 |1473 |3593 |4825 |2450 | 33 |  56 |   0 | 9.062560e+05 | 1.671168e+06 |  84.40%| unknown
 58.4s|     1 |     0 |142481 |     - |    66M |   0 |1473 |3593 |4890 |2515 | 34 |  56 |   0 | 9.068834e+05 | 1.671168e+06 |  84.28%| unknown
 58.4s|     1 |     0 |142482 |     - |    66M |   0 |1473 |3593 |4890 |2515 | 34 |  56 |   0 | 9.068840e+05 | 1.671168e+06 |  84.28%| unknown
 58.6s|     1 |     0 |143070 |     - |    66M |   0 |1473 |3593 |4701 |2556 | 35 |  56 |   0 | 9.074693e+05 | 1.671168e+06 |  84.16%| unknown
 58.6s|     1 |     0 |143071 |     - |    66M |   0 |1473 |3593 |4701 |2556 | 35 |  56 |   0 | 9.074700e+05 | 1.671168e+06 |  84.16%| unknown
 time | node  | left  |LP iter|LP it/n|mem/heur|mdpt |vars |cons |rows |cuts |sepa|confs|strbr|  dualbound   | primalbound  |  gap   | compl. 
 58.7s|     1 |     0 |143206 |     - |    66M |   0 |1473 |3593 |4751 |2606 | 36 |  56 |   0 | 9.080168e+05 | 1.671168e+06 |  84.05%| unknown
 58.7s|     1 |     0 |143207 |     - |    66M |   0 |1473 |3594 |4751 |2606 | 36 |  57 |   0 | 9.080170e+05 | 1.671168e+06 |  84.05%| unknown
 59.3s|     1 |     0 |144672 |     - |    66M |   0 |1473 |3594 |4792 |2647 | 37 |  57 |   0 | 9.085286e+05 | 1.671168e+06 |  83.94%| unknown
 59.3s|     1 |     0 |144673 |     - |    66M |   0 |1473 |3595 |4792 |2647 | 37 |  58 |   0 | 9.085290e+05 | 1.671168e+06 |  83.94%| unknown
 59.6s|     1 |     0 |145698 |     - |    66M |   0 |1473 |3595 |4754 |2703 | 38 |  58 |   0 | 9.090083e+05 | 1.671168e+06 |  83.85%| unknown
 59.7s|     1 |     0 |145699 |     - |    66M |   0 |1473 |3595 |4754 |2703 | 38 |  58 |   0 | 9.090090e+05 | 1.671168e+06 |  83.85%| unknown
 60.0s|     1 |     0 |146524 |     - |    66M |   0 |1473 |3595 |4804 |2753 | 39 |  58 |   0 | 9.094586e+05 | 1.671168e+06 |  83.75%| unknown
 60.0s|     1 |     0 |146525 |     - |    66M |   0 |1473 |3596 |4804 |2753 | 39 |  59 |   0 | 9.094590e+05 | 1.671168e+06 |  83.75%| unknown
 60.2s|     1 |     0 |147059 |     - |    66M |   0 |1473 |3596 |4849 |2798 | 40 |  59 |   0 | 9.098813e+05 | 1.671168e+06 |  83.67%| unknown
 60.2s|     1 |     0 |147060 |     - |    66M |   0 |1473 |3596 |4849 |2798 | 40 |  59 |   0 | 9.098820e+05 | 1.671168e+06 |  83.67%| unknown
 60.3s|     1 |     0 |147426 |     - |    67M |   0 |1473 |3596 |4705 |2829 | 41 |  59 |   0 | 9.102790e+05 | 1.671168e+06 |  83.59%| unknown
 60.4s|     1 |     0 |147427 |     - |    67M |   0 |1473 |3598 |4705 |2829 | 41 |  61 |   0 | 9.102790e+05 | 1.671168e+06 |  83.59%| unknown
 61.0s|     1 |     0 |149340 |     - |    67M |   0 |1473 |3598 |4741 |2865 | 42 |  61 |   0 | 9.106526e+05 | 1.671168e+06 |  83.51%| unknown
 61.0s|     1 |     0 |149341 |     - |    67M |   0 |1473 |3598 |4741 |2865 | 42 |  61 |   0 | 9.106530e+05 | 1.671168e+06 |  83.51%| unknown
 61.4s|     1 |     0 |150655 |     - |    67M |   0 |1473 |3598 |4796 |2920 | 43 |  61 |   0 | 9.110049e+05 | 1.671168e+06 |  83.44%| unknown
 time | node  | left  |LP iter|LP it/n|mem/heur|mdpt |vars |cons |rows |cuts |sepa|confs|strbr|  dualbound   | primalbound  |  gap   | compl. 
 61.5s|     1 |     0 |150656 |     - |    67M |   0 |1473 |3599 |4796 |2920 | 43 |  62 |   0 | 9.110050e+05 | 1.671168e+06 |  83.44%| unknown
 61.8s|     1 |     0 |151617 |     - |    67M |   0 |1473 |3599 |4776 |2979 | 44 |  62 |   0 | 9.113367e+05 | 1.671168e+06 |  83.38%| unknown
 61.8s|     1 |     0 |151618 |     - |    67M |   0 |1473 |3599 |4776 |2979 | 44 |  62 |   0 | 9.113370e+05 | 1.671168e+06 |  83.38%| unknown
 62.0s|     1 |     0 |152163 |     - |    67M |   0 |1473 |3599 |4823 |3026 | 45 |  62 |   0 | 9.116500e+05 | 1.671168e+06 |  83.31%| unknown
 62.0s|     1 |     0 |152164 |     - |    67M |   0 |1473 |3599 |4823 |3026 | 45 |  62 |   0 | 9.116500e+05 | 1.671168e+06 |  83.31%| unknown
 62.3s|     1 |     0 |152688 |     - |    67M |   0 |1473 |3599 |4875 |3078 | 46 |  62 |   0 | 9.119455e+05 | 1.671168e+06 |  83.25%| unknown
 62.3s|     1 |     0 |152689 |     - |    68M |   0 |1473 |3599 |4875 |3078 | 46 |  62 |   0 | 9.119460e+05 | 1.671168e+06 |  83.25%| unknown
 62.5s|     1 |     0 |153385 |     - |    68M |   0 |1473 |3599 |4830 |3125 | 47 |  62 |   0 | 9.122252e+05 | 1.671168e+06 |  83.20%| unknown
 62.5s|     1 |     0 |153386 |     - |    68M |   0 |1473 |3599 |4830 |3125 | 47 |  62 |   0 | 9.122260e+05 | 1.671168e+06 |  83.20%| unknown
 62.8s|     1 |     0 |154196 |     - |    68M |   0 |1473 |3599 |4872 |3167 | 48 |  62 |   0 | 9.124899e+05 | 1.671168e+06 |  83.14%| unknown
 62.9s|     1 |     0 |154197 |     - |    68M |   0 |1473 |3599 |4872 |3167 | 48 |  62 |   0 | 9.124900e+05 | 1.671168e+06 |  83.14%| unknown
 63.2s|     1 |     0 |155260 |     - |    68M |   0 |1473 |3599 |4910 |3205 | 49 |  62 |   0 | 9.127397e+05 | 1.671168e+06 |  83.09%| unknown
 63.3s|     1 |     0 |155261 |     - |    68M |   0 |1473 |3599 |4910 |3205 | 49 |  62 |   0 | 9.127400e+05 | 1.671168e+06 |  83.09%| unknown
 63.4s|     1 |     0 |155499 |     - |    68M |   0 |1473 |3599 |4883 |3252 | 50 |  62 |   0 | 9.129763e+05 | 1.671168e+06 |  83.05%| unknown
 63.4s|     1 |     0 |155500 |     - |    68M |   0 |1473 |3599 |4883 |3252 | 50 |  62 |   0 | 9.129770e+05 | 1.671168e+06 |  83.05%| unknown
 time | node  | left  |LP iter|LP it/n|mem/heur|mdpt |vars |cons |rows |cuts |sepa|confs|strbr|  dualbound   | primalbound  |  gap   | compl. 
 63.8s|     1 |     0 |156512 |     - |    68M |   0 |1473 |3599 |4924 |3293 | 51 |  62 |   0 | 9.132008e+05 | 1.671168e+06 |  83.00%| unknown
 63.8s|     1 |     0 |156513 |     - |    68M |   0 |1473 |3600 |4924 |3293 | 51 |  63 |   0 | 9.132010e+05 | 1.671168e+06 |  83.00%| unknown
 64.0s|     1 |     0 |157148 |     - |    68M |   0 |1473 |3600 |4952 |3321 | 52 |  63 |   0 | 9.134130e+05 | 1.671168e+06 |  82.96%| unknown
 64.1s|     1 |     0 |157149 |     - |    68M |   0 |1473 |3600 |4952 |3321 | 52 |  63 |   0 | 9.134130e+05 | 1.671168e+06 |  82.96%| unknown
 64.2s|     1 |     0 |157581 |     - |    68M |   0 |1473 |3600 |4874 |3361 | 53 |  63 |   0 | 9.136139e+05 | 1.671168e+06 |  82.92%| unknown
 64.2s|     1 |     0 |157582 |     - |    68M |   0 |1473 |3600 |4874 |3361 | 53 |  63 |   0 | 9.136140e+05 | 1.671168e+06 |  82.92%| unknown
 64.3s|     1 |     0 |157758 |     - |    68M |   0 |1473 |3600 |4914 |3401 | 54 |  63 |   0 | 9.138045e+05 | 1.671168e+06 |  82.88%| unknown
 64.4s|     1 |     0 |157760 |     - |    68M |   0 |1473 |3600 |4914 |3401 | 54 |  63 |   0 | 9.138050e+05 | 1.671168e+06 |  82.88%| unknown
 64.4s|     1 |     0 |157854 |     - |    68M |   0 |1473 |3600 |4955 |3442 | 55 |  63 |   0 | 9.139857e+05 | 1.671168e+06 |  82.84%| unknown
 64.4s|     1 |     0 |157855 |     - |    68M |   0 |1473 |3600 |4955 |3442 | 55 |  63 |   0 | 9.139860e+05 | 1.671168e+06 |  82.84%| unknown
 64.6s|     1 |     0 |158240 |     - |    68M |   0 |1473 |3600 |4831 |3478 | 56 |  63 |   0 | 9.141574e+05 | 1.671168e+06 |  82.81%| unknown
 64.6s|     1 |     0 |158241 |     - |    68M |   0 |1473 |3600 |4831 |3478 | 56 |  63 |   0 | 9.141580e+05 | 1.671168e+06 |  82.81%| unknown
 64.9s|     1 |     0 |159105 |     - |    68M |   0 |1473 |3600 |4866 |3513 | 57 |  63 |   0 | 9.143207e+05 | 1.671168e+06 |  82.78%| unknown
 65.0s|     1 |     0 |159106 |     - |    68M |   0 |1473 |3601 |4866 |3513 | 57 |  64 |   0 | 9.143210e+05 | 1.671168e+06 |  82.78%| unknown
 65.1s|     1 |     0 |159444 |     - |    68M |   0 |1473 |3601 |4907 |3554 | 58 |  64 |   0 | 9.144755e+05 | 1.671168e+06 |  82.75%| unknown
 time | node  | left  |LP iter|LP it/n|mem/heur|mdpt |vars |cons |rows |cuts |sepa|confs|strbr|  dualbound   | primalbound  |  gap   | compl. 
 65.1s|     1 |     0 |159446 |     - |    68M |   0 |1473 |3602 |4907 |3554 | 58 |  65 |   0 | 9.144760e+05 | 1.671168e+06 |  82.75%| unknown
 65.3s|     1 |     0 |160014 |     - |    68M |   0 |1473 |3602 |4854 |3601 | 59 |  65 |   0 | 9.146227e+05 | 1.671168e+06 |  82.72%| unknown
 65.4s|     1 |     0 |160015 |     - |    68M |   0 |1473 |3602 |4854 |3601 | 59 |  65 |   0 | 9.146230e+05 | 1.671168e+06 |  82.72%| unknown
 65.6s|     1 |     0 |160528 |     - |    68M |   0 |1473 |3602 |4893 |3640 | 60 |  65 |   0 | 9.147623e+05 | 1.671168e+06 |  82.69%| unknown
 65.6s|     1 |     0 |160530 |     - |    68M |   0 |1473 |3604 |4893 |3640 | 60 |  67 |   0 | 9.147630e+05 | 1.671168e+06 |  82.69%| unknown
 65.8s|     1 |     0 |161050 |     - |    68M |   0 |1473 |3604 |4937 |3684 | 61 |  67 |   0 | 9.148953e+05 | 1.671168e+06 |  82.66%| unknown
 65.8s|     1 |     0 |161051 |     - |    68M |   0 |1473 |3606 |4937 |3684 | 61 |  69 |   0 | 9.148960e+05 | 1.671168e+06 |  82.66%| unknown
 65.9s|     1 |     0 |161160 |     - |    68M |   0 |1473 |3606 |4890 |3736 | 62 |  69 |   0 | 9.150217e+05 | 1.671168e+06 |  82.64%| unknown
 65.9s|     1 |     0 |161161 |     - |    68M |   0 |1473 |3607 |4890 |3736 | 62 |  70 |   0 | 9.150220e+05 | 1.671168e+06 |  82.64%| unknown
 66.0s|     1 |     0 |161245 |     - |    68M |   0 |1473 |3607 |4926 |3772 | 63 |  70 |   0 | 9.151415e+05 | 1.671168e+06 |  82.61%| unknown
 66.0s|     1 |     0 |161251 |     - |    68M |   0 |1473 |3607 |4926 |3772 | 63 |  70 |   0 | 9.151420e+05 | 1.671168e+06 |  82.61%| unknown
 66.3s|     1 |     0 |162062 |     - |    68M |   0 |1473 |3607 |4961 |3807 | 64 |  70 |   0 | 9.152556e+05 | 1.671168e+06 |  82.59%| unknown
 66.3s|     1 |     0 |162063 |     - |    68M |   0 |1473 |3607 |4961 |3807 | 64 |  70 |   0 | 9.152560e+05 | 1.671168e+06 |  82.59%| unknown
 66.4s|     1 |     0 |162273 |     - |    68M |   0 |1473 |3607 |4904 |3840 | 65 |  70 |   0 | 9.153640e+05 | 1.671168e+06 |  82.57%| unknown
 66.4s|     1 |     0 |162274 |     - |    68M |   0 |1473 |3608 |4904 |3840 | 65 |  71 |   0 | 9.153640e+05 | 1.671168e+06 |  82.57%| unknown
 time | node  | left  |LP iter|LP it/n|mem/heur|mdpt |vars |cons |rows |cuts |sepa|confs|strbr|  dualbound   | primalbound  |  gap   | compl. 
 66.5s|     1 |     0 |162397 |     - |    68M |   0 |1473 |3608 |4929 |3865 | 66 |  71 |   0 | 9.154667e+05 | 1.671168e+06 |  82.55%| unknown
 66.5s|     1 |     0 |162398 |     - |    68M |   0 |1473 |3608 |4929 |3865 | 66 |  71 |   0 | 9.154670e+05 | 1.671168e+06 |  82.55%| unknown
 66.6s|     1 |     0 |162526 |     - |    68M |   0 |1473 |3608 |4965 |3901 | 67 |  71 |   0 | 9.155647e+05 | 1.671168e+06 |  82.53%| unknown
 66.6s|     1 |     0 |162527 |     - |    69M |   0 |1473 |3608 |4965 |3901 | 67 |  71 |   0 | 9.155650e+05 | 1.671168e+06 |  82.53%| unknown
 66.7s|     1 |     0 |162738 |     - |    69M |   0 |1473 |3608 |4886 |3933 | 68 |  71 |   0 | 9.156579e+05 | 1.671168e+06 |  82.51%| unknown
 66.7s|     1 |     0 |162739 |     - |    69M |   0 |1473 |3608 |4886 |3933 | 68 |  71 |   0 | 9.156580e+05 | 1.671168e+06 |  82.51%| unknown
 66.8s|     1 |     0 |162897 |     - |    69M |   0 |1473 |3608 |4920 |3967 | 69 |  71 |   0 | 9.157464e+05 | 1.671168e+06 |  82.49%| unknown
 66.8s|     1 |     0 |162898 |     - |    69M |   0 |1473 |3608 |4920 |3967 | 69 |  71 |   0 | 9.157470e+05 | 1.671168e+06 |  82.49%| unknown
 66.9s|     1 |     0 |163018 |     - |    69M |   0 |1473 |3608 |4950 |3997 | 70 |  71 |   0 | 9.158311e+05 | 1.671168e+06 |  82.48%| unknown
 66.9s|     1 |     0 |163020 |     - |    69M |   0 |1473 |3608 |4950 |3997 | 70 |  71 |   0 | 9.158320e+05 | 1.671168e+06 |  82.48%| unknown
 67.0s|     1 |     0 |163103 |     - |    69M |   0 |1473 |3608 |4917 |4030 | 71 |  71 |   0 | 9.159120e+05 | 1.671168e+06 |  82.46%| unknown
 67.0s|     1 |     0 |163104 |     - |    69M |   0 |1473 |3611 |4917 |4030 | 71 |  74 |   0 | 9.159120e+05 | 1.671168e+06 |  82.46%| unknown
 67.1s|     1 |     0 |163174 |     - |    69M |   0 |1473 |3611 |4952 |4065 | 72 |  74 |   0 | 9.159881e+05 | 1.671168e+06 |  82.44%| unknown
 67.1s|     1 |     0 |163175 |     - |    69M |   0 |1473 |3611 |4952 |4065 | 72 |  74 |   0 | 9.159890e+05 | 1.671168e+06 |  82.44%| unknown
 67.1s|     1 |     0 |163206 |     - |    69M |   0 |1473 |3611 |4975 |4088 | 73 |  74 |   0 | 9.160614e+05 | 1.671168e+06 |  82.43%| unknown
 time | node  | left  |LP iter|LP it/n|mem/heur|mdpt |vars |cons |rows |cuts |sepa|confs|strbr|  dualbound   | primalbound  |  gap   | compl. 
 67.1s|     1 |     0 |163207 |     - |    69M |   0 |1473 |3611 |4975 |4088 | 73 |  74 |   0 | 9.160620e+05 | 1.671168e+06 |  82.43%| unknown
 67.2s|     1 |     0 |163235 |     - |    69M |   0 |1473 |3611 |4933 |4104 | 74 |  74 |   0 | 9.161309e+05 | 1.671168e+06 |  82.42%| unknown
 67.2s|     1 |     0 |163236 |     - |    69M |   0 |1473 |3611 |4933 |4104 | 74 |  74 |   0 | 9.161310e+05 | 1.671168e+06 |  82.42%| unknown
 67.3s|     1 |     0 |163262 |     - |    69M |   0 |1473 |3611 |4950 |4121 | 75 |  74 |   0 | 9.161965e+05 | 1.671168e+06 |  82.40%| unknown
 67.3s|     1 |     0 |163263 |     - |    69M |   0 |1473 |3612 |4950 |4121 | 75 |  75 |   0 | 9.161970e+05 | 1.671168e+06 |  82.40%| unknown
 67.3s|     1 |     0 |163279 |     - |    69M |   0 |1473 |3612 |4969 |4140 | 76 |  75 |   0 | 9.162594e+05 | 1.671168e+06 |  82.39%| unknown
 67.3s|     1 |     0 |163280 |     - |    69M |   0 |1473 |3612 |4969 |4140 | 76 |  75 |   0 | 9.162600e+05 | 1.671168e+06 |  82.39%| unknown
 67.4s|     1 |     0 |163315 |     - |    69M |   0 |1473 |3611 |4914 |4158 | 77 |  75 |   0 | 9.163193e+05 | 1.671168e+06 |  82.38%| unknown
 67.4s|     1 |     0 |163317 |     - |    69M |   0 |1473 |3612 |4914 |4158 | 77 |  76 |   0 | 9.163200e+05 | 1.671168e+06 |  82.38%| unknown
 67.8s|     1 |     0 |164573 |     - |    69M |   0 |1473 |3612 |4934 |4178 | 78 |  76 |   0 | 9.163765e+05 | 1.671168e+06 |  82.37%| unknown
 67.8s|     1 |     0 |164574 |     - |    69M |   0 |1473 |3612 |4934 |4178 | 78 |  76 |   0 | 9.163770e+05 | 1.671168e+06 |  82.37%| unknown
 77.5s|     1 |     2 |184379 |     - |    70M |   0 |1473 |3625 |4934 |4178 | 78 |  89 |  16 | 9.163770e+05 | 1.671168e+06 |  82.37%| unknown
*79.0s|     6 |     5 |188344 |4754.0 |    LP  |   5 |1473 |3625 |4400 |4244 |  0 |  89 |  16 | 9.338880e+05 | 1.654784e+06 |  77.19%| unknown
d79.9s|     6 |     7 |191841 |5453.4 |pscostdi|   5 |1473 |3629 |4404 |   0 |  2 |  93 |  16 | 9.338880e+05 | 1.048576e+06 |  12.28%| unknown
*81.2s|    11 |     4 |194619 |3004.5 |    LP  |   5 |1473 |3627 |4368 |4282 |  0 |  93 |  16 | 9.338880e+05 | 9.994240e+05 |   7.02%|  22.56%
 time | node  | left  |LP iter|LP it/n|mem/heur|mdpt |vars |cons |rows |cuts |sepa|confs|strbr|  dualbound   | primalbound  |  gap   | compl. 
*82.1s|    15 |     2 |196576 |2285.9 |    LP  |   5 |1473 |3586 |4355 |4282 |  0 |  96 |  16 | 9.338880e+05 | 9.830400e+05 |   5.26%|  53.07%
 99.1s|   100 |    42 |249711 | 860.0 |    77M |  20 |1473 |3620 |4497 |4953 |  2 | 188 |  23 | 9.338880e+05 | 9.830400e+05 |   5.26%|  53.10%
